NAME : rat99.tsp
COMMENT : Optimal tour for rat99.tsp
TYPE : TOUR
DIMENSION : 99
Total Length: 1313.565143827195
TOUR_SECTION
1
2
3
12
11
10
20
19
28
37
29
30
31
40
39
48
38
47
46
55
56
57
58
59
68
67
66
65
64
74
73
75
76
77
78
69
70
71
80
79
88
87
86
85
84
83
82
91
92
93
94
95
96
97
98
99
90
89
81
72
63
62
61
60
49
50
51
52
53
54
45
44
36
27
17
18
9
8
7
16
15
23
24
25
26
35
34
43
42
41
32
33
21
22
13
14
6
5
4
-1
EOF
